
===== New CPLEX run =====
Instance: /home/yorig/tuner/mpils-tests/instances/miplib/easy/lotsize.mps
Config: /scratch/yorig/mpils-results-grid-ticks-10000/easy/16proc/seed-9/4_lotsize_seed-9_20260425_202405/expansion/config_param_CPXPARAM_MIP_Limits_StrongCand_2_iter_5.prm
========================

Selected objective sense:  MINIMIZE
Selected objective  name:  R1921
Selected RHS        name:  B
Selected bound      name:  BOUND
Version identifier: 22.1.2.0 | 2024-11-26 | 0edbb82fd
CPXPARAM_Preprocessing_Dependency                2
CPXPARAM_Threads                                 8
CPXPARAM_Parallel                                1
CPXPARAM_MIP_Cuts_Cliques                        -1
CPXPARAM_Preprocessing_CoeffReduce               3
CPXPARAM_MIP_Strategy_VariableSelect             1
CPXPARAM_MIP_Cuts_FlowCovers                     1
CPXPARAM_MIP_Cuts_GUBCovers                      2
CPXPARAM_MIP_Limits_StrongCand                   2
CPXPARAM_MIP_Limits_GomoryCand                   10
CPXPARAM_MIP_Cuts_MIRCut                         2
CPXPARAM_MIP_Cuts_Disjunctive                    2
CPXPARAM_MIP_Limits_AggForCut                    10
CPXPARAM_Emphasis_MIP                            4
CPXPARAM_DetTimeLimit                            10000
Tried aggregator 1 time.
MIP Presolve eliminated 595 rows and 0 columns.
MIP Presolve added 1190 rows and 0 columns.
MIP Presolve modified 10 coefficients.
Reduced MIP has 2515 rows, 2985 columns, and 7755 nonzeros.
Reduced MIP has 1195 binaries, 0 generals, 0 SOSs, and 0 indicators.
Presolve time = 0.00 sec. (4.63 ticks)
Probing fixed 0 vars, tightened 5487 bounds.
Probing time = 0.01 sec. (18.38 ticks)
Tried aggregator 2 times.
Detecting symmetries...
MIP Presolve modified 1206 coefficients.
Aggregator did 10 substitutions.
Reduced MIP has 2505 rows, 2975 columns, and 7735 nonzeros.
Reduced MIP has 1195 binaries, 0 generals, 0 SOSs, and 0 indicators.
Presolve time = 0.00 sec. (6.76 ticks)
Probing fixed 0 vars, tightened 2401 bounds.
Probing time = 0.00 sec. (6.41 ticks)
Clique table members: 190.
MIP emphasis: hidden feasible solutions.
MIP search method: dynamic search.
Parallel mode: deterministic, using up to 8 threads.
Root relaxation solution time = 0.01 sec. (9.76 ticks)

        Nodes                                         Cuts/
   Node  Left     Objective  IInf  Best Integer    Best Bound    ItCnt     Gap

      0     0   348385.3466   472                 348385.3466      882         
      0     0   582561.7294   438                   Cuts: 726     1828         
      0     0   816809.1068   691                   Cuts: 726     2692         
*     0+    0                       1.01740e+07   816809.1068            91.97%
*     0+    0                      7973370.0000   816809.1068            89.76%
      0     0   975349.8865   668  7973370.0000     Cuts: 726     3465   87.77%
      0     0  1085503.5598   696  7973370.0000     Cuts: 726     4194   86.39%
      0     0  1199024.4532   697  7973370.0000     Cuts: 726     4990   84.96%
Detecting symmetries...
*     0+    0                      2214406.0000  1199024.4532            45.85%
      0     0  1265555.4608   703  2214406.0000     Cuts: 726     5685   42.85%
*     0+    0                      1941716.0000  1265555.4608            34.82%
      0     0  1303319.1451   722  1941716.0000     Cuts: 726     6322   32.88%
      0     0  1336991.6401   750  1941716.0000     Cuts: 726     6961   31.14%
      0     0  1356767.6161   784  1941716.0000     Cuts: 726     7565   30.13%
      0     0  1373309.1218   775  1941716.0000     Cuts: 726     8249   29.27%
      0     0  1387312.9131   763  1941716.0000     Cuts: 726     8869   28.55%
      0     0  1397242.6711   802  1941716.0000     Cuts: 726     9458   28.04%
      0     0  1404879.1384   803  1941716.0000     Cuts: 726     9969   27.65%
      0     0  1412630.2938   817  1941716.0000     Cuts: 726    10783   27.25%
      0     0  1417609.1540   818  1941716.0000     Cuts: 638    11218   26.99%
      0     0  1420757.2373   820  1941716.0000     Cuts: 514    11567   26.83%
      0     0  1424413.1502   836  1941716.0000     Cuts: 596    11911   26.64%
*     0+    0                      1931791.0000  1424413.1502            26.26%
      0     0  1427024.0539   832  1931791.0000     Cuts: 353    12264   26.13%
      0     0  1428738.9598   843  1931791.0000     Cuts: 363    12544   26.04%
      0     0  1430027.1990   830  1931791.0000     Cuts: 274    12777   25.97%
      0     0  1430968.8649   847  1931791.0000     Cuts: 296    12992   25.93%
      0     0  1431947.6247   847  1931791.0000     Cuts: 235    13199   25.87%
      0     0  1433094.9655   848  1931791.0000     Cuts: 307    13380   25.82%
      0     0  1433881.7740   832  1931791.0000     Cuts: 264    13548   25.77%
      0     0  1434833.7936   841  1931791.0000     Cuts: 241    13697   25.73%
*     0+    0                      1840074.0000  1434833.7936            22.02%
      0     0  1435841.8271   840  1840074.0000     Cuts: 229    13899   21.97%
      0     0  1436366.9378   839  1840074.0000     Cuts: 279    14055   21.94%
      0     0  1436905.1271   846  1840074.0000     Cuts: 179    14253   21.91%
      0     0  1437283.6268   843  1840074.0000     Cuts: 212    14391   21.89%
      0     0  1437465.9858   843  1840074.0000     Cuts: 144    14471   21.88%
*     0+    0                      1525597.0000  1437465.9858             5.78%

GUB cover cuts applied:  0
Cover cuts applied:  10
Implied bound cuts applied:  22
Flow cuts applied:  612
Mixed integer rounding cuts applied:  998
Flow path cuts applied:  12
Multi commodity flow cuts applied:  13
Disjunctive cuts applied:  0
Cone linearizations applied:  0

Root node processing (before b&c):
  Real time             =    6.28 sec. (10005.25 ticks)
Parallel b&c, 8 threads:
  Real time             =    0.00 sec. (0.00 ticks)
  Sync time (average)   =    0.00 sec.
  Wait time (average)   =    0.00 sec.
                          ------------
Total (root+branch&cut) =    6.28 sec. (10005.25 ticks)
Gap: 5.78%
Upper bound: 1.5256e+06
Lower bound: 1.43747e+06
End of CPLEX run. Time: 6.28448 seconds

===== New CPLEX run =====
Instance: /home/yorig/tuner/mpils-tests/instances/miplib/easy/lotsize.mps
Config: /scratch/yorig/mpils-results-grid-ticks-10000/easy/16proc/seed-9/4_lotsize_seed-9_20260425_202405/expansion/config_param_CPXPARAM_MIP_Limits_StrongCand_5_iter_5.prm
========================

Selected objective sense:  MINIMIZE
Selected objective  name:  R1921
Selected RHS        name:  B
Selected bound      name:  BOUND
Version identifier: 22.1.2.0 | 2024-11-26 | 0edbb82fd
CPXPARAM_Preprocessing_Dependency                2
CPXPARAM_Threads                                 8
CPXPARAM_Parallel                                1
CPXPARAM_MIP_Cuts_Cliques                        -1
CPXPARAM_Preprocessing_CoeffReduce               3
CPXPARAM_MIP_Strategy_VariableSelect             1
CPXPARAM_MIP_Cuts_FlowCovers                     1
CPXPARAM_MIP_Cuts_GUBCovers                      2
CPXPARAM_MIP_Limits_StrongCand                   5
CPXPARAM_MIP_Limits_GomoryCand                   10
CPXPARAM_MIP_Cuts_MIRCut                         2
CPXPARAM_MIP_Cuts_Disjunctive                    2
CPXPARAM_MIP_Limits_AggForCut                    10
CPXPARAM_Emphasis_MIP                            4
CPXPARAM_DetTimeLimit                            10000
Tried aggregator 1 time.
MIP Presolve eliminated 595 rows and 0 columns.
MIP Presolve added 1190 rows and 0 columns.
MIP Presolve modified 10 coefficients.
Reduced MIP has 2515 rows, 2985 columns, and 7755 nonzeros.
Reduced MIP has 1195 binaries, 0 generals, 0 SOSs, and 0 indicators.
Presolve time = 0.00 sec. (4.63 ticks)
Probing fixed 0 vars, tightened 5487 bounds.
Probing time = 0.01 sec. (18.38 ticks)
Tried aggregator 2 times.
Detecting symmetries...
MIP Presolve modified 1206 coefficients.
Aggregator did 10 substitutions.
Reduced MIP has 2505 rows, 2975 columns, and 7735 nonzeros.
Reduced MIP has 1195 binaries, 0 generals, 0 SOSs, and 0 indicators.
Presolve time = 0.00 sec. (6.76 ticks)
Probing fixed 0 vars, tightened 2401 bounds.
Probing time = 0.00 sec. (6.41 ticks)
Clique table members: 190.
MIP emphasis: hidden feasible solutions.
MIP search method: dynamic search.
Parallel mode: deterministic, using up to 8 threads.
Root relaxation solution time = 0.01 sec. (9.76 ticks)

        Nodes                                         Cuts/
   Node  Left     Objective  IInf  Best Integer    Best Bound    ItCnt     Gap

      0     0   348385.3466   472                 348385.3466      882         
      0     0   582561.7294   438                   Cuts: 726     1828         
      0     0   816809.1068   691                   Cuts: 726     2692         
*     0+    0                       1.01740e+07   816809.1068            91.97%
*     0+    0                      7973370.0000   816809.1068            89.76%
      0     0   975349.8865   668  7973370.0000     Cuts: 726     3465   87.77%
      0     0  1085503.5598   696  7973370.0000     Cuts: 726     4194   86.39%
      0     0  1199024.4532   697  7973370.0000     Cuts: 726     4990   84.96%
Detecting symmetries...
*     0+    0                      2214406.0000  1199024.4532            45.85%
      0     0  1265555.4608   703  2214406.0000     Cuts: 726     5685   42.85%
*     0+    0                      1941716.0000  1265555.4608            34.82%
      0     0  1303319.1451   722  1941716.0000     Cuts: 726     6322   32.88%
      0     0  1336991.6401   750  1941716.0000     Cuts: 726     6961   31.14%
      0     0  1356767.6161   784  1941716.0000     Cuts: 726     7565   30.13%
      0     0  1373309.1218   775  1941716.0000     Cuts: 726     8249   29.27%
      0     0  1387312.9131   763  1941716.0000     Cuts: 726     8869   28.55%
      0     0  1397242.6711   802  1941716.0000     Cuts: 726     9458   28.04%
      0     0  1404879.1384   803  1941716.0000     Cuts: 726     9969   27.65%
      0     0  1412630.2938   817  1941716.0000     Cuts: 726    10783   27.25%
      0     0  1417609.1540   818  1941716.0000     Cuts: 638    11218   26.99%
      0     0  1420757.2373   820  1941716.0000     Cuts: 514    11567   26.83%
      0     0  1424413.1502   836  1941716.0000     Cuts: 596    11911   26.64%
*     0+    0                      1931791.0000  1424413.1502            26.26%
      0     0  1427024.0539   832  1931791.0000     Cuts: 353    12264   26.13%
      0     0  1428738.9598   843  1931791.0000     Cuts: 363    12544   26.04%
      0     0  1430027.1990   830  1931791.0000     Cuts: 274    12777   25.97%
      0     0  1430968.8649   847  1931791.0000     Cuts: 296    12992   25.93%
      0     0  1431947.6247   847  1931791.0000     Cuts: 235    13199   25.87%
      0     0  1433094.9655   848  1931791.0000     Cuts: 307    13380   25.82%
      0     0  1433881.7740   832  1931791.0000     Cuts: 264    13548   25.77%
      0     0  1434833.7936   841  1931791.0000     Cuts: 241    13697   25.73%
*     0+    0                      1840074.0000  1434833.7936            22.02%
      0     0  1435841.8271   840  1840074.0000     Cuts: 229    13899   21.97%
      0     0  1436366.9378   839  1840074.0000     Cuts: 279    14055   21.94%
      0     0  1436905.1271   846  1840074.0000     Cuts: 179    14253   21.91%
      0     0  1437283.6268   843  1840074.0000     Cuts: 212    14391   21.89%
      0     0  1437465.9858   843  1840074.0000     Cuts: 144    14471   21.88%
*     0+    0                      1525597.0000  1437465.9858             5.78%

GUB cover cuts applied:  0
Cover cuts applied:  10
Implied bound cuts applied:  22
Flow cuts applied:  612
Mixed integer rounding cuts applied:  998
Flow path cuts applied:  12
Multi commodity flow cuts applied:  13
Disjunctive cuts applied:  0
Cone linearizations applied:  0

Root node processing (before b&c):
  Real time             =    6.27 sec. (10005.25 ticks)
Parallel b&c, 8 threads:
  Real time             =    0.00 sec. (0.00 ticks)
  Sync time (average)   =    0.00 sec.
  Wait time (average)   =    0.00 sec.
                          ------------
Total (root+branch&cut) =    6.27 sec. (10005.25 ticks)
Gap: 5.78%
Upper bound: 1.5256e+06
Lower bound: 1.43747e+06
End of CPLEX run. Time: 6.2781 seconds
